0000000000000000
0001111110000000
0001111111000000
0001111111100000
0000001111100000
0000000111100000
0000000111100000
0000000111100000
0000000111100000
0000000111100000
0000111111100000
0001111111110000
0011111011110000
0011110011110000
0111110011110000
0111100011110000
